0
0
10
0
8
12
0
0
6
0
0
0
0
5
22
47
0
13
11
13
10
0
0
15
39
0
7
0
0
0
0
0
9
0
36
0
5
0
7
12
7
0
16
0
0
13
0
0
5
13
0
11
0
14
11
11
17
0
28
0
11
24
0
6
0
0
41
23
6
5
0
0
11
0
11
8
0
6
0
0
6
0
25
14
7
0
0
8
12
0
0
0
0
0
0
9
23
0
6
0
